c Result of efficient AIG-to-CNF conversion using package CNF
p cnf 362 1236
2 -3 288 0
2 -3 187 0
2 -3 282 0
-2 3 0
-2 -187 -282 -288 0
3 -4 157 -174 0
3 -4 -157 -158 0
-3 4 0
-3 -157 158 0
-3 157 174 0
4 -5 -34 -51 -107 0
-4 107 0
-4 5 0
-4 51 0
-4 34 0
5 357 -6 21 0
5 -357 21 -32 0
-5 -21 0
-5 -357 32 0
-5 357 6 0
6 358 -7 0
6 -358 -14 0
-6 -358 14 0
-6 358 7 0
7 359 -8 0
7 -359 -11 0
-7 -359 11 0
-7 359 8 0
8 -360 -10 0
8 360 -9 0
-8 360 9 0
-8 -360 10 0
-9 313 361 0
-9 314 -361 0
9 -314 -361 0
9 -313 361 0
-10 315 361 0
-10 316 -361 0
10 -316 -361 0
10 -315 361 0
11 -360 -13 0
11 360 -12 0
-11 360 12 0
-11 -360 13 0
-12 317 361 0
-12 318 -361 0
12 -318 -361 0
12 -317 361 0
-13 319 361 0
-13 320 -361 0
13 -320 -361 0
13 -319 361 0
14 359 -15 0
14 -359 -18 0
-14 -359 18 0
-14 359 15 0
15 -360 -17 0
15 360 -16 0
-15 360 16 0
-15 -360 17 0
-16 321 361 0
-16 322 -361 0
16 -322 -361 0
16 -321 361 0
-17 323 361 0
-17 324 -361 0
17 -324 -361 0
17 -323 361 0
18 -360 -20 0
18 360 -19 0
-18 360 19 0
-18 -360 20 0
-19 325 361 0
-19 326 -361 0
19 -326 -361 0
19 -325 361 0
-20 327 361 0
-20 328 -361 0
20 -328 -361 0
20 -327 361 0
-21 22 28 30 31 0
21 -31 0
21 -22 0
21 -30 0
21 -28 0
-22 354 355 23 25 0
22 -354 0
22 -25 0
22 -23 0
22 -355 0
-23 346 352 353 24 0
23 -24 0
23 -353 0
23 -346 0
23 -352 0
-24 350 351 356 0
24 -350 0
24 -356 0
24 -351 0
-25 342 343 26 27 0
25 -342 0
25 -27 0
25 -26 0
25 -343 0
-26 347 348 349 0
26 -347 0
26 -349 0
26 -348 0
-27 338 339 344 345 0
27 -345 0
27 -344 0
27 -338 0
27 -339 0
-28 336 340 341 29 0
28 -29 0
28 -341 0
28 -336 0
28 -340 0
-29 334 335 0
29 -334 0
29 -335 0
-30 330 337 0
30 -330 0
30 -337 0
-31 331 332 333 0
31 -331 0
31 -333 0
31 -332 0
32 358 -33 0
-32 -358 0
-32 33 0
33 -329 359 360 361 0
-33 -361 0
-33 -360 0
-33 329 0
-33 -359 0
34 35 -36 0
34 -358 35 -44 0
-34 -35 0
-34 36 44 0
-34 358 36 0
-35 357 21 0
35 -357 0
35 -21 0
36 358 -37 0
-36 -358 0
-36 37 0
37 359 -38 0
37 -359 -41 0
-37 -359 41 0
-37 359 38 0
38 -360 -40 0
38 360 -39 0
-38 360 39 0
-38 -360 40 0
-39 314 361 0
-39 315 -361 0
39 -315 -361 0
39 -314 361 0
-40 316 361 0
-40 317 -361 0
40 -317 -361 0
40 -316 361 0
41 -360 -43 0
41 360 -42 0
-41 360 42 0
-41 -360 43 0
-42 318 361 0
-42 319 -361 0
42 -319 -361 0
42 -318 361 0
-43 320 361 0
-43 321 -361 0
43 -321 -361 0
43 -320 361 0
44 359 -45 0
44 -359 -48 0
-44 -359 48 0
-44 359 45 0
45 -360 -47 0
45 360 -46 0
-45 360 46 0
-45 -360 47 0
-46 322 361 0
-46 323 -361 0
46 -323 -361 0
46 -322 361 0
-47 324 361 0
-47 325 -361 0
47 -325 -361 0
47 -324 361 0
48 -360 -50 0
48 360 -49 0
-48 360 49 0
-48 -360 50 0
-49 326 361 0
-49 327 -361 0
49 -327 -361 0
49 -326 361 0
-50 328 361 0
-50 329 -361 0
50 -329 -361 0
50 -328 361 0
51 21 52 -64 -90 0
-51 90 0
-51 64 0
-51 -21 0
-51 -52 0
52 -357 53 0
-52 357 0
-52 -53 0
53 358 -59 0
53 -358 -54 -56 0
-53 -358 54 0
-53 358 59 0
-53 -358 56 0
54 359 -18 0
54 -359 -55 0
-54 -359 55 0
-54 359 18 0
55 -329 360 361 0
-55 329 0
-55 -361 0
-55 -360 0
56 359 -57 0
56 -359 -58 0
-56 -359 58 0
-56 359 57 0
57 -360 -49 0
57 360 -47 0
-57 360 47 0
-57 -360 49 0
58 -328 360 361 0
58 -329 360 -361 0
-58 -360 0
-58 329 -361 0
-58 328 361 0
59 -60 -63 0
-59 60 0
-59 63 0
60 359 -61 0
60 -359 -62 0
-60 -359 62 0
-60 359 61 0
61 -360 -42 0
61 360 -40 0
-61 360 40 0
-61 -360 42 0
62 -360 -46 0
62 360 -43 0
-62 360 43 0
-62 -360 46 0
63 359 -11 0
63 -359 -15 0
-63 -359 15 0
-63 359 11 0
-64 357 -358 65 0
-64 357 358 76 0
64 -357 0
64 -358 -65 0
64 358 -76 0
65 -66 -72 0
-65 66 0
-65 72 0
66 359 -67 0
66 -359 -70 0
-66 -359 70 0
-66 359 67 0
67 -360 -69 0
67 360 -68 0
-67 360 68 0
-67 -360 69 0
-68 308 361 0
-68 309 -361 0
68 -309 -361 0
68 -308 361 0
-69 310 361 0
-69 311 -361 0
69 -311 -361 0
69 -310 361 0
70 360 -71 0
70 -360 -39 0
-70 -360 39 0
-70 360 71 0
-71 312 361 0
-71 313 -361 0
71 -313 -361 0
71 -312 361 0
72 -359 -8 0
72 359 -73 0
-72 359 73 0
-72 -359 8 0
73 -360 -75 0
73 360 -74 0
-73 360 74 0
-73 -360 75 0
-74 309 361 0
-74 310 -361 0
74 -310 -361 0
74 -309 361 0
-75 311 361 0
-75 312 -361 0
75 -312 -361 0
75 -311 361 0
76 -359 -77 -87 0
76 359 -77 -84 0
-76 77 0
-76 -359 87 0
-76 359 84 0
77 359 -78 0
77 -359 -81 0
-77 -359 81 0
-77 359 78 0
78 -360 -80 0
78 360 -79 0
-78 360 79 0
-78 -360 80 0
-79 300 361 0
-79 301 -361 0
79 -301 -361 0
79 -300 361 0
-80 302 361 0
-80 303 -361 0
80 -303 -361 0
80 -302 361 0
81 -360 -83 0
81 360 -82 0
-81 360 82 0
-81 -360 83 0
-82 304 361 0
-82 305 -361 0
82 -305 -361 0
82 -304 361 0
-83 306 361 0
-83 307 -361 0
83 -307 -361 0
83 -306 361 0
-84 -360 85 0
-84 360 86 0
84 360 -86 0
84 -360 -85 0
-85 303 361 0
-85 304 -361 0
85 -304 -361 0
85 -303 361 0
-86 301 361 0
-86 302 -361 0
86 -302 -361 0
86 -301 361 0
87 -360 -89 0
87 360 -88 0
-87 360 88 0
-87 -360 89 0
-88 305 361 0
-88 306 -361 0
88 -306 -361 0
88 -305 361 0
-89 307 361 0
-89 308 -361 0
89 -308 -361 0
89 -307 361 0
-90 357 91 0
-90 -357 104 0
-90 -357 102 0
90 357 -91 0
90 -357 -102 -104 0
-91 -358 101 0
-91 358 92 0
-91 -358 98 0
91 358 -92 0
91 -358 -98 -101 0
92 -93 -96 0
-92 93 0
-92 96 0
93 359 -94 0
93 -359 -95 0
-93 -359 95 0
-93 359 94 0
94 360 -75 0
94 -360 -9 0
-94 -360 9 0
-94 360 75 0
95 -360 -12 0
95 360 -10 0
-95 360 10 0
-95 -360 12 0
96 -359 -38 0
96 359 -97 0
-96 359 97 0
-96 -359 38 0
97 -360 -71 0
97 360 -69 0
-97 360 69 0
-97 -360 71 0
98 359 -99 0
98 -359 -100 0
-98 -359 100 0
-98 359 99 0
99 -360 -16 0
99 360 -13 0
-99 360 13 0
-99 -360 16 0
100 -360 -19 0
100 360 -17 0
-100 360 17 0
-100 -360 19 0
101 359 -41 0
101 -359 -45 0
-101 -359 45 0
-101 359 41 0
102 358 -103 0
-102 -358 0
-102 103 0
103 359 -48 0
-103 -359 0
-103 48 0
104 358 -105 0
-104 -358 0
-104 105 0
105 359 -106 0
-105 -359 0
-105 106 0
106 360 -20 0
106 -329 -360 361 0
-106 329 -360 0
-106 360 20 0
-106 -360 -361 0
107 -108 -141 -149 -152 0
-107 152 0
-107 108 0
-107 149 0
-107 141 0
108 21 -109 -115 -129 0
-108 129 0
-108 115 0
-108 -21 0
-108 109 0
-109 357 110 0
-109 -357 114 0
109 -357 -114 0
109 357 -110 0
-110 -358 96 0
-110 358 111 0
110 -358 -96 0
110 358 -111 0
-111 359 113 0
-111 -359 112 0
111 -359 -112 0
111 359 -113 0
112 360 -83 0
112 -360 -68 0
-112 -360 68 0
-112 360 83 0
113 -360 -82 0
113 360 -80 0
-113 360 80 0
-113 -360 82 0
114 358 -101 0
114 -358 -103 0
-114 -358 103 0
-114 358 101 0
-115 -357 116 0
-115 357 122 127 0
115 357 -127 0
115 -357 -116 0
115 357 -122 0
-116 117 121 0
-116 117 119 0
-116 358 117 0
116 -117 0
116 -358 -119 -121 0
117 358 -14 -98 -118 0
-117 -358 0
-117 118 0
-117 98 0
-117 14 0
118 -359 -57 0
118 359 -62 0
-118 359 62 0
-118 -359 57 0
119 359 360 -20 -120 0
-119 120 0
-119 20 0
-119 -359 0
-119 -360 0
120 -329 361 0
-120 329 0
-120 -361 0
121 359 -58 0
-121 -359 0
-121 58 0
122 358 -123 0
122 358 -125 0
-122 -358 0
-122 123 125 0
123 -359 -67 -73 -124 0
-123 124 0
-123 359 0
-123 73 0
-123 67 0
124 360 -89 0
124 -360 -74 0
-124 -360 74 0
-124 360 89 0
125 359 -81 -87 -126 0
-125 -359 0
-125 126 0
-125 87 0
-125 81 0
126 -360 -88 0
126 360 -85 0
-126 360 85 0
-126 -360 88 0
127 -358 -7 -93 -128 0
-127 128 0
-127 358 0
-127 93 0
-127 7 0
128 -359 -61 0
128 359 -70 0
-128 359 70 0
-128 -359 61 0
129 21 -130 -138 139 0
-129 -139 0
-129 138 0
-129 -21 0
-129 130 0
-130 -357 -358 0
-130 357 131 0
-130 -357 136 0
130 357 -131 0
130 -357 358 -136 0
-131 66 134 0
-131 -358 134 0
-131 132 134 0
131 -134 0
131 358 -66 -132 0
132 -359 -97 -133 0
132 359 -112 -133 0
-132 133 0
-132 -359 97 0
-132 359 112 0
133 -359 -94 0
133 359 -124 0
-133 359 124 0
-133 -359 94 0
134 -358 -37 -60 -135 0
-134 135 0
-134 358 0
-134 60 0
-134 37 0
135 359 -95 0
135 -359 -99 0
-135 -359 99 0
-135 359 95 0
136 -44 -56 -137 0
-136 44 0
-136 56 0
-136 137 0
137 359 -100 0
137 -359 -106 0
-137 -359 106 0
-137 359 100 0
-138 357 -358 63 0
-138 357 358 72 0
138 -357 0
138 -358 -63 0
138 358 -72 0
139 -357 140 0
-139 357 0
-139 -140 0
140 358 -54 0
-140 -358 0
-140 54 0
141 357 21 -144 0
141 -357 21 -142 0
-141 -21 0
-141 357 144 0
-141 -357 142 0
-142 44 135 0
-142 36 143 0
-142 135 143 0
-142 36 44 0
142 -36 -135 0
142 -44 -143 0
143 -358 -137 0
-143 358 0
-143 137 0
-144 -358 132 0
-144 358 145 0
144 -358 -132 0
144 358 -145 0
-145 359 146 0
-145 -359 113 0
-145 -359 126 0
145 359 -146 0
145 -359 -113 -126 0
-146 360 147 0
-146 -360 148 0
-146 299 360 0
146 -360 -148 0
146 -299 360 -147 0
-147 298 361 0
-147 300 -361 0
147 -300 -361 0
147 -298 361 0
148 -300 -301 361 0
148 -301 -302 -361 0
-148 301 0
-148 302 -361 0
-148 300 361 0
149 -357 21 -151 0
149 357 21 -150 0
-149 -21 0
-149 -357 151 0
-149 357 150 0
150 -358 -118 0
150 358 -128 0
-150 358 128 0
-150 -358 118 0
151 358 -121 0
-151 -358 0
-151 121 0
152 -56 -153 154 -155 0
-152 155 0
-152 56 0
-152 -154 0
-152 153 0
153 35 -53 -114 -116 0
-153 114 0
-153 116 0
-153 -35 0
-153 53 0
-154 358 35 0
154 -358 0
154 -35 0
155 -44 -137 154 -156 0
-155 156 0
-155 44 0
-155 -154 0
-155 137 0
156 35 -143 0
156 358 35 -135 0
-156 -35 0
-156 -358 143 0
-156 135 143 0
157 35 -140 0
-157 -35 0
-157 140 0
-158 -159 160 0
-158 159 168 0
158 -159 -160 0
158 159 -168 0
159 35 -102 0
-159 -35 0
-159 102 0
-160 -161 162 0
-160 161 167 0
-160 161 -166 0
160 -161 -162 0
160 161 166 -167 0
161 35 -104 0
-161 -35 0
-161 104 0
-162 163 165 0
-162 328 -163 164 0
162 -328 -163 0
162 163 -165 0
162 -163 -164 0
163 35 -151 0
-163 -35 0
-163 151 0
164 -32 35 0
-164 32 0
-164 -35 0
165 -327 -164 0
165 -326 164 0
-165 326 164 0
-165 327 -164 0
166 325 -163 -164 0
166 324 -163 164 0
-166 163 0
-166 -324 164 0
-166 -325 -164 0
-167 323 163 -164 0
-167 322 163 164 0
167 -163 0
167 -322 164 0
167 -323 -164 0
168 -161 -169 0
168 161 172 -173 0
-168 161 173 0
-168 -161 169 0
-168 161 -172 0
169 -163 -170 0
169 163 -171 0
-169 163 171 0
-169 -163 170 0
170 -321 -164 0
170 -320 164 0
-170 320 164 0
-170 321 -164 0
171 -319 -164 0
171 -318 164 0
-171 318 164 0
-171 319 -164 0
172 317 -163 -164 0
172 316 -163 164 0
-172 163 0
-172 -316 164 0
-172 -317 -164 0
-173 315 163 -164 0
-173 314 163 164 0
173 -163 0
173 -314 164 0
173 -315 -164 0
174 -159 -175 0
174 159 181 -184 0
-174 159 184 0
-174 -159 175 0
-174 159 -181 0
175 -161 -176 0
175 161 179 -180 0
-175 161 180 0
-175 -161 176 0
-175 161 -179 0
176 -163 -177 0
176 163 -178 0
-176 163 178 0
-176 -163 177 0
177 -313 -164 0
177 -312 164 0
-177 312 164 0
-177 313 -164 0
178 -311 -164 0
178 -310 164 0
-178 310 164 0
-178 311 -164 0
179 309 -163 -164 0
179 308 -163 164 0
-179 163 0
-179 -308 164 0
-179 -309 -164 0
-180 307 163 -164 0
-180 306 163 164 0
180 -163 0
180 -306 164 0
180 -307 -164 0
181 -161 163 183 0
181 -161 -163 182 0
-181 161 0
-181 -163 -182 0
-181 163 -183 0
182 -305 -164 0
182 -304 164 0
-182 304 164 0
-182 305 -164 0
183 -303 -164 0
183 -302 164 0
-183 302 164 0
-183 303 -164 0
-184 161 -163 185 0
-184 161 163 186 0
184 -161 0
184 -163 -185 0
184 163 -186 0
185 -301 -164 0
185 -300 164 0
-185 300 164 0
-185 301 -164 0
186 -299 -164 0
186 -298 164 0
-186 298 164 0
-186 299 -164 0
187 -357 -188 -275 0
187 357 -224 -275 0
-187 275 0
-187 -357 188 0
-187 357 224 0
188 -189 -204 0
188 -193 -200 -204 0
-188 204 0
-188 189 200 0
-188 189 193 0
189 -358 -190 -191 0
-189 358 0
-189 190 0
-189 191 0
190 -298 359 360 361 0
-190 -361 0
-190 -360 0
-190 298 0
-190 -359 0
191 360 -192 0
191 -298 -360 361 0
-191 298 -360 0
-191 360 192 0
-191 -360 -361 0
-192 300 361 0
-192 299 -361 0
192 -300 361 0
192 -299 -361 0
193 358 -194 0
-193 -358 0
-193 194 0
194 359 -195 0
194 -359 -198 0
-194 -359 198 0
-194 359 195 0
195 -360 -197 0
195 360 -196 0
-195 360 196 0
-195 -360 197 0
-196 306 361 0
-196 305 -361 0
196 -306 361 0
196 -305 -361 0
-197 304 361 0
-197 303 -361 0
197 -304 361 0
197 -303 -361 0
198 360 -199 0
198 -360 -192 0
-198 -360 192 0
-198 360 199 0
-199 302 361 0
-199 301 -361 0
199 -302 361 0
199 -301 -361 0
200 359 -201 0
200 -359 -203 0
-200 -359 203 0
-200 359 201 0
201 360 -202 0
201 -360 -196 0
-201 -360 196 0
-201 360 202 0
-202 308 361 0
-202 307 -361 0
202 -308 361 0
202 -307 -361 0
203 -360 -199 0
203 360 -197 0
-203 360 197 0
-203 -360 199 0
204 358 -205 -214 -220 0
-204 -358 0
-204 220 0
-204 214 0
-204 205 0
205 -206 -209 0
-205 206 0
-205 209 0
206 358 -207 0
-206 -358 0
-206 207 0
207 359 -198 0
207 -359 360 -208 0
-207 -359 -360 0
-207 359 198 0
-207 -359 208 0
208 -298 361 0
-208 298 0
-208 -361 0
209 358 -191 -210 0
-209 210 0
-209 191 0
-209 -358 0
210 359 -211 0
-210 -359 0
-210 211 0
211 -360 -213 0
211 360 -212 0
-211 360 212 0
-211 -360 213 0
-212 301 361 0
-212 300 -361 0
212 -301 361 0
212 -300 -361 0
213 -299 361 0
213 -298 -361 0
-213 299 361 0
-213 298 -361 0
214 -215 -219 0
-214 215 0
-214 219 0
215 359 -216 0
215 -359 -218 0
-215 -359 218 0
-215 359 216 0
216 360 -217 0
216 -360 -212 0
-216 -360 212 0
-216 360 217 0
-217 303 361 0
-217 302 -361 0
217 -303 361 0
217 -302 -361 0
218 -298 360 -361 0
218 -299 360 361 0
-218 -360 0
-218 298 -361 0
-218 299 361 0
219 -359 -191 0
219 359 -203 0
-219 359 203 0
-219 -359 191 0
220 -359 -216 0
220 359 -221 0
-220 359 221 0
-220 -359 216 0
221 -360 -223 0
221 360 -222 0
-221 360 222 0
-221 -360 223 0
-222 307 361 0
-222 306 -361 0
222 -307 361 0
222 -306 -361 0
-223 305 361 0
-223 304 -361 0
223 -305 361 0
223 -304 -361 0
224 358 -225 -259 0
224 -358 -225 -251 0
-224 225 0
-224 -358 251 0
-224 358 259 0
-225 226 241 0
-225 -358 226 0
-225 226 234 0
225 -226 0
225 358 -234 -241 0
226 -358 -200 -227 -230 0
-226 230 0
-226 358 0
-226 227 0
-226 200 0
227 -359 -195 0
227 359 -228 0
-227 359 228 0
-227 -359 195 0
228 360 -229 0
228 -360 -202 0
-228 -360 202 0
-228 360 229 0
-229 310 361 0
-229 309 -361 0
229 -310 361 0
229 -309 -361 0
230 359 -231 0
230 -359 -233 0
-230 -359 233 0
-230 359 231 0
231 360 -232 0
231 -360 -222 0
-231 -360 222 0
-231 360 232 0
-232 309 361 0
-232 308 -361 0
232 -309 361 0
232 -308 -361 0
233 360 -223 0
233 -360 -217 0
-233 -360 217 0
-233 360 223 0
234 359 -235 0
234 -359 -238 0
-234 -359 238 0
-234 359 235 0
235 -360 -237 0
235 360 -236 0
-235 360 236 0
-235 -360 237 0
-236 318 361 0
-236 317 -361 0
236 -318 361 0
236 -317 -361 0
-237 316 361 0
-237 315 -361 0
237 -316 361 0
237 -315 -361 0
238 -360 -240 0
238 360 -239 0
-238 360 239 0
-238 -360 240 0
-239 314 361 0
-239 313 -361 0
239 -314 361 0
239 -313 -361 0
-240 312 361 0
-240 311 -361 0
240 -312 361 0
240 -311 -361 0
241 359 -242 -248 0
241 -359 -245 -248 0
-241 248 0
-241 -359 245 0
-241 359 242 0
242 -360 -244 0
242 360 -243 0
-242 360 243 0
-242 -360 244 0
-243 317 361 0
-243 316 -361 0
243 -317 361 0
243 -316 -361 0
-244 315 361 0
-244 314 -361 0
244 -315 361 0
244 -314 -361 0
245 -360 -247 0
245 360 -246 0
-245 360 246 0
-245 -360 247 0
-246 313 361 0
-246 312 -361 0
246 -313 361 0
246 -312 -361 0
-247 311 361 0
-247 310 -361 0
247 -311 361 0
247 -310 -361 0
248 359 -249 0
248 -359 -250 0
-248 -359 250 0
-248 359 249 0
249 -360 -239 0
249 360 -237 0
-249 360 237 0
-249 -360 239 0
250 360 -240 0
250 -360 -229 0
-250 -360 229 0
-250 360 240 0
251 -248 -252 -256 -258 0
-251 258 0
-251 248 0
-251 256 0
-251 252 0
252 -253 -255 0
-252 253 0
-252 255 0
253 -359 -221 0
253 359 -254 0
-253 359 254 0
-253 -359 221 0
254 360 -247 0
254 -360 -232 0
-254 -360 232 0
-254 360 247 0
255 -359 -201 0
255 359 -250 0
-255 359 250 0
-255 -359 201 0
256 -359 -254 0
256 359 -257 0
-256 359 257 0
-256 -359 254 0
257 -360 -246 0
257 360 -244 0
-257 360 244 0
-257 -360 246 0
258 -359 -228 0
258 359 -238 0
-258 359 238 0
-258 -359 228 0
259 359 -260 -267 0
259 -359 -260 -266 0
-259 260 0
-259 -359 266 0
-259 359 267 0
260 359 -261 -264 0
260 -359 -249 -261 0
-260 261 0
-260 -359 249 0
-260 359 264 0
261 -359 -257 0
261 359 -262 0
-261 359 262 0
-261 -359 257 0
262 360 -263 0
262 -360 -243 0
-262 -360 243 0
-262 360 263 0
-263 319 361 0
-263 318 -361 0
263 -319 361 0
263 -318 -361 0
264 360 -265 0
264 -360 -236 0
-264 -360 236 0
-264 360 265 0
-265 320 361 0
-265 319 -361 0
265 -320 361 0
265 -319 -361 0
266 -235 -262 -264 0
-266 235 0
-266 262 0
-266 264 0
267 360 -268 -270 0
267 -360 -269 -270 0
-267 270 0
-267 360 268 0
-267 -360 269 0
-268 324 361 0
-268 323 -361 0
268 -324 361 0
268 -323 -361 0
-269 322 361 0
-269 321 -361 0
269 -322 361 0
269 -321 -361 0
270 360 -269 -271 0
270 -360 -265 -271 0
-270 271 0
-270 360 269 0
-270 -360 265 0
271 360 -272 0
271 -360 -274 0
271 360 -273 0
-271 -360 274 0
-271 360 272 273 0
272 -322 -361 0
-272 322 0
-272 361 0
273 -323 361 0
-273 323 0
-273 -361 0
-274 321 361 0
-274 320 -361 0
274 -321 361 0
274 -320 -361 0
275 21 -278 0
275 21 -276 -277 0
-275 -21 0
-275 276 278 0
-275 277 278 0
276 -357 358 0
-276 357 0
-276 -358 0
277 -359 -211 0
277 359 -233 0
-277 359 233 0
-277 -359 211 0
278 357 358 -280 0
278 357 -358 -279 0
-278 -357 0
-278 -358 279 0
-278 358 280 0
279 -359 -231 0
279 359 -245 0
-279 359 245 0
-279 -359 231 0
280 -359 -242 0
280 359 -281 0
-280 359 281 0
-280 -359 242 0
281 360 -274 0
281 -360 -263 0
-281 -360 263 0
-281 360 274 0
282 35 -283 -284 -286 0
-282 286 0
-282 -35 0
-282 284 0
-282 283 0
283 -358 -215 0
283 358 -253 0
-283 358 253 0
-283 -358 215 0
284 -358 -219 -285 0
284 358 -255 -285 0
-284 285 0
-284 -358 219 0
-284 358 255 0
285 -358 -207 0
285 358 -227 0
-285 358 227 0
-285 -358 207 0
286 -358 -277 -287 0
286 358 -279 -287 0
-286 287 0
-286 -358 277 0
-286 358 279 0
-287 358 258 0
-287 -358 194 0
287 -358 -194 0
287 358 -258 0
288 -289 -290 -293 -296 0
-288 296 0
-288 289 0
-288 293 0
-288 290 0
289 358 35 -230 0
289 -358 35 -210 0
-289 -35 0
-289 -358 210 0
-289 358 230 0
290 35 -190 -209 -291 0
-290 291 0
-290 -35 0
-290 209 0
-290 190 0
291 358 -292 0
-291 -358 0
-291 292 0
292 359 -218 0
-292 -359 0
-292 218 0
293 -200 -206 -294 -295 0
-293 295 0
-293 200 0
-293 294 0
-293 206 0
294 358 -220 0
294 -358 -292 0
-294 -358 292 0
-294 358 220 0
295 35 -193 -214 -277 0
-295 277 0
-295 -35 0
-295 214 0
-295 193 0
296 357 21 -297 0
296 -357 21 -291 0
-296 -21 0
-296 -357 291 0
-296 357 297 0
297 -358 -220 0
297 358 -256 0
-297 358 256 0
-297 -358 220 0
-362 0
2 0

